(set-logic ALL)
(declare-fun var0 () String)
(assert (str.in_re var0 (re.++ (re.* (re.union (str.to_re "00") (str.to_re "111"))) (re.++ (re.union (re.+ (str.to_re "22")) (re.+ (str.to_re "3"))) (re.++ (re.union (re.union (str.to_re "44") (str.to_re "55")) (re.union (str.to_re "6") (str.to_re "7"))) (re.++ (re.union (re.* (str.to_re "8")) (re.* (str.to_re "999"))) (re.++ (re.* (re.* (str.to_re "a"))) (re.++ (re.+ (re.union (str.to_re "b") (str.to_re "c"))) (re.++ (re.union (re.* (str.to_re "dd")) (re.* (str.to_re "e"))) (re.++ (re.union (re.* (str.to_re "f")) (re.* (str.to_re "gg"))) (re.++ (re.+ (re.+ (str.to_re "h"))) (re.++ (re.union (re.* (str.to_re "iii")) (re.* (str.to_re "j"))) (re.union (re.* (str.to_re "k")) (re.* (str.to_re "l")))))))))))))))
(assert (not (str.in_re var0 (re.++ (re.+ (re.* (str.to_re "0"))) (re.++ (re.* (re.+ (str.to_re "1"))) (re.++ (re.* (re.* (str.to_re "2"))) (re.++ (re.* (re.union (str.to_re "3") (str.to_re "444"))) (re.++ (re.union (re.union (str.to_re "5") (str.to_re "66")) (re.union (str.to_re "77") (str.to_re "88"))) (re.++ (re.union (re.+ (str.to_re "9")) (re.+ (str.to_re "aaa"))) (re.++ (re.union (re.* (str.to_re "bb")) (re.* (str.to_re "ccc"))) (re.++ (re.* (re.union (str.to_re "ddd") (str.to_re "e"))) (re.++ (re.+ (re.* (str.to_re "ff"))) (re.++ (re.union (re.+ (str.to_re "gg")) (re.+ (str.to_re "hhh"))) (re.+ (re.* (str.to_re "ii"))))))))))))))))
(check-sat)